%chk=geometry.chk 
%mem=299GB 
%nprocshared=36 
#P PBE1PBE/aug-cc-pVDZ EmpiricalDispersion=GD3 NoSymm 
#P TD=(singlets,nstates=10000) IOp(6/8=3) IOp(9/40=4) IOp(8/10=90) 

Geom 0

0 1
C   -1.2131    -0.6884    0.0
C   -1.2028     0.7064    0.0
C   -0.0103    -1.3948    0.0
C    0.0104     1.3948    0.0
C    1.2028    -0.7063    0.0
C    1.2131     0.6884    0.0
H   -2.1577    -1.2244    0.0
H   -2.1393     1.2564    0.0
H   -0.0184    -2.4809    0.0
H    0.0184     2.4808    0.0
H    2.1394    -1.2563    0.0
H    2.1577     1.2245    0.0
C   -1.2131    -0.6884    3.3
C   -1.2028     0.7064    3.3
C   -0.0103    -1.3948    3.3
C    0.0104     1.3948    3.3
C    1.2028    -0.7063    3.3
C    1.2131     0.6884    3.3
H   -2.1577    -1.2244    3.3
H   -2.1393     1.2564    3.3
H   -0.0184    -2.4809    3.3
H    0.0184     2.4808    3.3
H    2.1394    -1.2563    3.3
H    2.1577     1.2245    3.3



